# Solution for model p01_budget_0p040
# Objective value = 4.0000000000062319e-02
Risk 4.0000000000062319e-02
0 0
1 0
3 0.001
4 30.001
5 3.0002000000000002e+01
6 40.002
7 4.2896713756910664e+01
9 8.7465951771701782e+01
c(0,1)_Rl 0.001
c(0,1)_Ru 0
c(0,3)_Rl 0
c(0,3)_Ru 0
c(3,4)_Rl 0
c(3,4)_Ru 0
c(4,5)_Rl 0
c(4,5)_Ru 0
c(3,5)_Rl 0
c(3,5)_Ru 0
c(1,2)_l 0
c(1,2)_u 4.2895713756910666e+01
c(2,7)_Fl 0
c(2,7)_Fu 2.0615269119713731e-02
c(1,7)_Rl 0
c(1,7)_Ru 0
c(5,6)_Rl 0
c(5,6)_Ru 0
c(3,6)_Rl 0
c(3,6)_Ru 0
c(7,8)_l 0
c(7,8)_u 4.4568238014791113e+01
c(1,8)_Fl 0
c(1,8)_Fu 9.6923654401742942e-03
c(0,9)_Rl 0
c(0,9)_Ru 5.1465351771701783e+01
c(8,9)_Fl 0
c(8,9)_Fu 9.6923654401742942e-03
c(6,9)_Rl 0
c(6,9)_Ru 0
Cost 5.1466351771701781e+01
